
===== New CPLEX run =====
Instance: /home/yorig/tuner/mpils-tests/instances/miplib/easy/lotsize.mps
Config: /scratch/yorig/mpils-results-grid-ticks-10000/easy/16proc/seed-9/4_lotsize_seed-9_20260425_202405/iterated_local_search/run_2_worker_1/ils_config_14639017612510254395.prm
========================

Selected objective sense:  MINIMIZE
Selected objective  name:  R1921
Selected RHS        name:  B
Selected bound      name:  BOUND
Version identifier: 22.1.2.0 | 2024-11-26 | 0edbb82fd
CPXPARAM_Threads                                 8
CPXPARAM_Parallel                                1
CPXPARAM_MIP_Cuts_Cliques                        -1
CPXPARAM_MIP_Cuts_FlowCovers                     2
CPXPARAM_MIP_Cuts_Implied                        2
CPXPARAM_MIP_Cuts_GUBCovers                      -1
CPXPARAM_MIP_Limits_GomoryCand                   50
CPXPARAM_MIP_Cuts_Gomory                         1
CPXPARAM_MIP_Cuts_PathCut                        -1
CPXPARAM_MIP_Cuts_MIRCut                         2
CPXPARAM_MIP_Cuts_Disjunctive                    -1
CPXPARAM_Emphasis_MIP                            1
CPXPARAM_DetTimeLimit                            10000
1 of 34 MIP starts provided solutions.
MIP start 'm1' defined initial solution with objective 1505944.0000.
Tried aggregator 1 time.
MIP Presolve eliminated 595 rows and 0 columns.
MIP Presolve added 1190 rows and 0 columns.
MIP Presolve modified 10 coefficients.
Reduced MIP has 2515 rows, 2985 columns, and 7755 nonzeros.
Reduced MIP has 1195 binaries, 0 generals, 0 SOSs, and 0 indicators.
Presolve time = 0.00 sec. (4.53 ticks)
Probing fixed 0 vars, tightened 5487 bounds.
Probing time = 0.01 sec. (18.38 ticks)
Tried aggregator 2 times.
Detecting symmetries...
MIP Presolve modified 1206 coefficients.
Aggregator did 10 substitutions.
Reduced MIP has 2505 rows, 2975 columns, and 7735 nonzeros.
Reduced MIP has 1195 binaries, 0 generals, 0 SOSs, and 0 indicators.
Presolve time = 0.01 sec. (6.66 ticks)
Probing fixed 0 vars, tightened 2401 bounds.
Probing time = 0.01 sec. (6.41 ticks)
Clique table members: 190.
MIP emphasis: integer feasibility.
MIP search method: dynamic search.
Parallel mode: deterministic, using up to 8 threads.
Root relaxation solution time = 0.01 sec. (9.71 ticks)

        Nodes                                         Cuts/
   Node  Left     Objective  IInf  Best Integer    Best Bound    ItCnt     Gap

*     0+    0                      1505944.0000     2080.0000            99.86%
      0     0   348385.3466   472  1505944.0000   348385.3466      882   76.87%
      0     0   574105.3840   458  1505944.0000     Cuts: 726     1907   61.88%
      0     0   828855.5569   589  1505944.0000     Cuts: 726     2701   44.96%
      0     0   958992.3209   630  1505944.0000     Cuts: 726     3368   36.32%
Detecting symmetries...
      0     2   958992.3209   630  1505944.0000   958992.3209     3368   36.32%
Elapsed time = 0.38 sec. (401.20 ticks, tree = 0.02 MB, solutions = 1)
    467   403  1033356.8564   533  1505944.0000   960524.9075     8913   36.22%
   1073   886  1313908.0022   315  1505944.0000   960524.9075    17816   36.22%

Performing restart 1

Repeating presolve.
Tried aggregator 1 time.
MIP Presolve modified 1162 coefficients.
Reduced MIP has 2505 rows, 2975 columns, and 7735 nonzeros.
Reduced MIP has 1195 binaries, 0 generals, 0 SOSs, and 0 indicators.
Presolve time = 0.00 sec. (3.81 ticks)
Tried aggregator 1 time.
MIP Presolve modified 850 coefficients.
Reduced MIP has 2505 rows, 2975 columns, and 7735 nonzeros.
Reduced MIP has 1195 binaries, 0 generals, 0 SOSs, and 0 indicators.
Presolve time = 0.00 sec. (5.11 ticks)
Represolve time = 0.01 sec. (15.61 ticks)
   1723     0  1120570.6469   680  1505944.0000     Cuts: 726    30342   25.59%
   1723     0  1191176.6815   708  1505944.0000     Cuts: 726    31068   20.90%
   1723     0  1247104.5878   694  1505944.0000     Cuts: 726    31783   17.19%
   1723     2  1247104.5878   694  1505944.0000  1247104.5878    31783   17.19%
   1733    12  1286420.6771   650  1505944.0000  1247347.2782    32290   17.17%
   1754    33  1300282.5641   581  1505944.0000  1247347.2782    33134   17.17%
   1781     6  1280165.9271   683  1505944.0000  1247347.2782    31987   17.17%
   1789     8  1283912.2072   657  1505944.0000  1247359.5731    32147   17.17%
   1795    66  1307421.8616   744  1505944.0000  1261217.4524    37232   16.25%
   1820    91  1316326.4275   740  1505944.0000  1261230.5654    48670   16.25%
   2149   290  1370942.6164   677  1505944.0000  1284329.4212    77402   14.72%
Elapsed time = 3.94 sec. (5137.11 ticks, tree = 0.27 MB, solutions = 1)
   2806   931  1463967.4758   280  1505944.0000  1284329.4212   120775   14.72%
   3485  1448  1410640.8041   534  1505944.0000  1284329.4212   149207   14.72%
   4738  2664  1486461.4193   429  1505944.0000  1284329.4212   206817   14.72%
   5739  3536  1472933.2745   507  1505944.0000  1284329.4212   243569   14.72%
   6138  4026  1373166.1540   752  1505944.0000  1284329.4212   267937   14.72%

Cover cuts applied:  21
Implied bound cuts applied:  19
Flow cuts applied:  1087
Mixed integer rounding cuts applied:  1326
Multi commodity flow cuts applied:  17
Lift and project cuts applied:  9
Gomory fractional cuts applied:  3

Root node processing (before b&c):
  Real time             =    0.38 sec. (398.78 ticks)
Parallel b&c, 8 threads:
  Real time             =    8.52 sec. (9605.99 ticks)
  Sync time (average)   =    1.66 sec.
  Wait time (average)   =    0.00 sec.
                          ------------
Total (root+branch&cut) =    8.90 sec. (10004.77 ticks)
Gap: 14.72%
Upper bound: 1.50594e+06
Lower bound: 1.28433e+06
End of CPLEX run. Time: 8.89847 seconds

===== New CPLEX run =====
Instance: /home/yorig/tuner/mpils-tests/instances/miplib/easy/lotsize.mps
Config: /scratch/yorig/mpils-results-grid-ticks-10000/easy/16proc/seed-9/4_lotsize_seed-9_20260425_202405/iterated_local_search/run_2_worker_1/ils_config_490767699122439023.prm
========================

Selected objective sense:  MINIMIZE
Selected objective  name:  R1921
Selected RHS        name:  B
Selected bound      name:  BOUND
Version identifier: 22.1.2.0 | 2024-11-26 | 0edbb82fd
CPXPARAM_Threads                                 8
CPXPARAM_Parallel                                1
CPXPARAM_MIP_Cuts_Cliques                        -1
CPXPARAM_MIP_Strategy_VariableSelect             -1
CPXPARAM_MIP_Cuts_FlowCovers                     2
CPXPARAM_MIP_Cuts_Implied                        2
CPXPARAM_MIP_Cuts_GUBCovers                      -1
CPXPARAM_MIP_Limits_GomoryCand                   50
CPXPARAM_MIP_Cuts_Gomory                         1
CPXPARAM_MIP_Cuts_PathCut                        -1
CPXPARAM_MIP_Cuts_MIRCut                         2
CPXPARAM_MIP_Cuts_Disjunctive                    -1
CPXPARAM_Emphasis_MIP                            1
CPXPARAM_DetTimeLimit                            10000
1 of 34 MIP starts provided solutions.
MIP start 'm1' defined initial solution with objective 1505944.0000.
Tried aggregator 1 time.
MIP Presolve eliminated 595 rows and 0 columns.
MIP Presolve added 1190 rows and 0 columns.
MIP Presolve modified 10 coefficients.
Reduced MIP has 2515 rows, 2985 columns, and 7755 nonzeros.
Reduced MIP has 1195 binaries, 0 generals, 0 SOSs, and 0 indicators.
Presolve time = 0.00 sec. (4.53 ticks)
Probing fixed 0 vars, tightened 5487 bounds.
Probing time = 0.01 sec. (18.38 ticks)
Tried aggregator 2 times.
Detecting symmetries...
MIP Presolve modified 1206 coefficients.
Aggregator did 10 substitutions.
Reduced MIP has 2505 rows, 2975 columns, and 7735 nonzeros.
Reduced MIP has 1195 binaries, 0 generals, 0 SOSs, and 0 indicators.
Presolve time = 0.01 sec. (6.66 ticks)
Probing fixed 0 vars, tightened 2401 bounds.
Probing time = 0.00 sec. (6.41 ticks)
Clique table members: 190.
MIP emphasis: integer feasibility.
MIP search method: dynamic search.
Parallel mode: deterministic, using up to 8 threads.
Root relaxation solution time = 0.01 sec. (9.71 ticks)

        Nodes                                         Cuts/
   Node  Left     Objective  IInf  Best Integer    Best Bound    ItCnt     Gap

*     0+    0                      1505944.0000     2080.0000            99.86%
      0     0   348385.3466   472  1505944.0000   348385.3466      882   76.87%
      0     0   574105.3840   458  1505944.0000     Cuts: 726     1907   61.88%
      0     0   828855.5569   589  1505944.0000     Cuts: 726     2701   44.96%
      0     0   958992.3209   630  1505944.0000     Cuts: 726     3368   36.32%
Detecting symmetries...
      0     2   958992.3209   630  1505944.0000   958992.3209     3368   36.32%
Elapsed time = 0.37 sec. (401.11 ticks, tree = 0.02 MB, solutions = 1)
    513   469   997873.2604   548  1505944.0000   961025.5682     8202   36.18%
   1268  1171  1053208.8509   470  1505944.0000   961025.5682    16024   36.18%

Performing restart 1

Repeating presolve.
Tried aggregator 1 time.
MIP Presolve modified 1154 coefficients.
Reduced MIP has 2505 rows, 2975 columns, and 7735 nonzeros.
Reduced MIP has 1195 binaries, 0 generals, 0 SOSs, and 0 indicators.
Presolve time = 0.00 sec. (3.78 ticks)
Tried aggregator 1 time.
MIP Presolve modified 840 coefficients.
Reduced MIP has 2505 rows, 2975 columns, and 7735 nonzeros.
Reduced MIP has 1195 binaries, 0 generals, 0 SOSs, and 0 indicators.
Presolve time = 0.00 sec. (5.11 ticks)
Represolve time = 0.01 sec. (15.30 ticks)
   1718     0  1072474.1528   687  1505944.0000     Cuts: 726    24842   28.78%
   1718     0  1156759.3702   679  1505944.0000     Cuts: 726    25595   23.19%
   1718     0  1210826.4986   647  1505944.0000     Cuts: 726    26241   19.60%
   1718     2  1210826.4986   647  1505944.0000  1210826.4986    26241   19.60%
   1748    32  1281100.6060   580  1505944.0000  1211114.8223    26835   19.58%
   1788    71  1311069.9124   516  1505944.0000  1211114.8223    27575   19.58%
   1795     8  1259539.9827   620  1505944.0000  1211114.8223    26388   19.58%
   1805    84  1361562.2157   615  1505944.0000  1212044.7857    33094   19.52%
   1834    99  1341783.0437   755  1505944.0000  1217533.5854    48846   19.15%
   1902   135  1285778.5130   756  1505944.0000  1257752.5893    54766   16.48%
   2450   501  1324031.0142   692  1505944.0000  1257752.5893    78769   16.48%
Elapsed time = 3.88 sec. (4926.59 ticks, tree = 0.64 MB, solutions = 1)
   3034   927  1459554.1744   594  1505944.0000  1257752.5893   106599   16.48%
   4183  2126  1380587.5285   543  1505944.0000  1257752.5893   163255   16.48%
   6253  3615  1370900.3855   617  1505944.0000  1257752.5893   214683   16.48%
   7721  4655  1406553.6549   443  1505944.0000  1257752.5893   253192   16.48%
   9155  6043  1412028.3874   462  1505944.0000  1257752.5893   297933   16.48%

Cover cuts applied:  18
Implied bound cuts applied:  15
Flow cuts applied:  807
Mixed integer rounding cuts applied:  1032
Multi commodity flow cuts applied:  20
Lift and project cuts applied:  16
Gomory fractional cuts applied:  3

Root node processing (before b&c):
  Real time             =    0.37 sec. (398.86 ticks)
Parallel b&c, 8 threads:
  Real time             =    7.32 sec. (9604.70 ticks)
  Sync time (average)   =    0.48 sec.
  Wait time (average)   =    0.00 sec.
                          ------------
Total (root+branch&cut) =    7.69 sec. (10003.56 ticks)
Gap: 16.48%
Upper bound: 1.50594e+06
Lower bound: 1.25775e+06
End of CPLEX run. Time: 7.68654 seconds

===== New CPLEX run =====
Instance: /home/yorig/tuner/mpils-tests/instances/miplib/easy/lotsize.mps
Config: /scratch/yorig/mpils-results-grid-ticks-10000/easy/16proc/seed-9/4_lotsize_seed-9_20260425_202405/iterated_local_search/run_2_worker_1/ils_config_4983970215471993307.prm
========================

Selected objective sense:  MINIMIZE
Selected objective  name:  R1921
Selected RHS        name:  B
Selected bound      name:  BOUND
Version identifier: 22.1.2.0 | 2024-11-26 | 0edbb82fd
CPXPARAM_Threads                                 8
CPXPARAM_Parallel                                1
CPXPARAM_MIP_Cuts_Cliques                        -1
CPXPARAM_MIP_Cuts_FlowCovers                     2
CPXPARAM_MIP_Cuts_Implied                        2
CPXPARAM_MIP_Cuts_GUBCovers                      -1
CPXPARAM_MIP_Limits_GomoryCand                   50
CPXPARAM_MIP_Cuts_Gomory                         1
CPXPARAM_MIP_Cuts_MIRCut                         2
CPXPARAM_MIP_Cuts_Disjunctive                    -1
CPXPARAM_Emphasis_MIP                            1
CPXPARAM_DetTimeLimit                            10000
1 of 34 MIP starts provided solutions.
MIP start 'm1' defined initial solution with objective 1505944.0000.
Tried aggregator 1 time.
MIP Presolve eliminated 595 rows and 0 columns.
MIP Presolve added 1190 rows and 0 columns.
MIP Presolve modified 10 coefficients.
Reduced MIP has 2515 rows, 2985 columns, and 7755 nonzeros.
Reduced MIP has 1195 binaries, 0 generals, 0 SOSs, and 0 indicators.
Presolve time = 0.00 sec. (4.53 ticks)
Probing fixed 0 vars, tightened 5487 bounds.
Probing time = 0.01 sec. (18.38 ticks)
Tried aggregator 2 times.
Detecting symmetries...
MIP Presolve modified 1206 coefficients.
Aggregator did 10 substitutions.
Reduced MIP has 2505 rows, 2975 columns, and 7735 nonzeros.
Reduced MIP has 1195 binaries, 0 generals, 0 SOSs, and 0 indicators.
Presolve time = 0.01 sec. (6.66 ticks)
Probing fixed 0 vars, tightened 2401 bounds.
Probing time = 0.00 sec. (6.41 ticks)
Clique table members: 190.
MIP emphasis: integer feasibility.
MIP search method: dynamic search.
Parallel mode: deterministic, using up to 8 threads.
Root relaxation solution time = 0.01 sec. (9.71 ticks)

        Nodes                                         Cuts/
   Node  Left     Objective  IInf  Best Integer    Best Bound    ItCnt     Gap

*     0+    0                      1505944.0000     2080.0000            99.86%
      0     0   348385.3466   472  1505944.0000   348385.3466      882   76.87%
      0     0   574105.3840   458  1505944.0000     Cuts: 726     1907   61.88%
      0     0   816942.4737   692  1505944.0000     Cuts: 726     2814   45.75%
      0     0   946702.1215   697  1505944.0000     Cuts: 726     3536   37.14%
Detecting symmetries...
      0     2   946702.1215   697  1505944.0000   946702.1215     3536   37.14%
Elapsed time = 0.40 sec. (427.24 ticks, tree = 0.02 MB, solutions = 1)
    178   148  1092422.2111   622  1505944.0000   948405.5905    14601   37.02%
    631   557  1092356.4040   553  1505944.0000   948405.5905    21091   37.02%
   1103   931  1179762.2046   399  1505944.0000   948405.5905    26595   37.02%
   1580  1414  1414706.6683   334  1505944.0000   948405.5905    34120   37.02%

Performing restart 1

Repeating presolve.
Tried aggregator 1 time.
MIP Presolve modified 1161 coefficients.
Reduced MIP has 2505 rows, 2975 columns, and 7735 nonzeros.
Reduced MIP has 1195 binaries, 0 generals, 0 SOSs, and 0 indicators.
Presolve time = 0.00 sec. (3.81 ticks)
Tried aggregator 1 time.
MIP Presolve modified 839 coefficients.
Reduced MIP has 2505 rows, 2975 columns, and 7735 nonzeros.
Reduced MIP has 1195 binaries, 0 generals, 0 SOSs, and 0 indicators.
Presolve time = 0.00 sec. (5.11 ticks)
Represolve time = 0.01 sec. (15.99 ticks)
   1711     0  1104604.8735   732  1505944.0000     Cuts: 726    42628   26.65%
   1711     0  1166673.3836   771  1505944.0000     Cuts: 726    43384   22.53%
   1711     0  1243327.8316   759  1505944.0000     Cuts: 726    44088   17.44%
   1711     2  1243327.8316   759  1505944.0000  1243327.8316    44088   17.44%
   1721    12  1285718.5601   711  1505944.0000  1243422.7456    44353   17.43%
   1747    38  1302838.7309   650  1505944.0000  1243422.7456    44990   17.43%
   1773    64  1315290.8195   581  1505944.0000  1243422.7456    45910   17.43%
   1794     7  1281993.8983   732  1505944.0000  1243422.7456    44192   17.43%
   1892   124  1374500.9712   706  1505944.0000  1283290.9542    69456   14.78%
Elapsed time = 3.98 sec. (5276.50 ticks, tree = 0.10 MB, solutions = 1)
   2587   612  1495050.2044   387  1505944.0000  1283531.7597   104383   14.77%
   3112  1055  1391148.2401   552  1505944.0000  1289618.8436   136772   14.36%
   3936  1793  1428293.7676   550  1505944.0000  1295166.5021   177196   14.00%
   5071  2661  1424721.2705   506  1505944.0000  1298306.8583   217636   13.79%

Cover cuts applied:  21
Implied bound cuts applied:  17
Flow cuts applied:  725
Mixed integer rounding cuts applied:  1078
Flow path cuts applied:  55
Multi commodity flow cuts applied:  16
Lift and project cuts applied:  7
Gomory fractional cuts applied:  2

Root node processing (before b&c):
  Real time             =    0.39 sec. (424.67 ticks)
Parallel b&c, 8 threads:
  Real time             =    6.97 sec. (9579.46 ticks)
  Sync time (average)   =    0.42 sec.
  Wait time (average)   =    0.00 sec.
                          ------------
Total (root+branch&cut) =    7.37 sec. (10004.12 ticks)
Gap: 13.79%
Upper bound: 1.50594e+06
Lower bound: 1.29831e+06
End of CPLEX run. Time: 7.36736 seconds

===== New CPLEX run =====
Instance: /home/yorig/tuner/mpils-tests/instances/miplib/easy/lotsize.mps
Config: /scratch/yorig/mpils-results-grid-ticks-10000/easy/16proc/seed-9/4_lotsize_seed-9_20260425_202405/iterated_local_search/run_2_worker_1/ils_config_7206806418007278611.prm
========================

Selected objective sense:  MINIMIZE
Selected objective  name:  R1921
Selected RHS        name:  B
Selected bound      name:  BOUND
Version identifier: 22.1.2.0 | 2024-11-26 | 0edbb82fd
CPXPARAM_Threads                                 8
CPXPARAM_Parallel                                1
CPXPARAM_MIP_Cuts_Cliques                        -1
CPXPARAM_MIP_Cuts_FlowCovers                     2
CPXPARAM_MIP_Cuts_Implied                        2
CPXPARAM_MIP_Cuts_GUBCovers                      -1
CPXPARAM_MIP_Limits_GomoryCand                   800
CPXPARAM_MIP_Cuts_Gomory                         1
CPXPARAM_MIP_Cuts_MIRCut                         2
CPXPARAM_MIP_Cuts_Disjunctive                    -1
CPXPARAM_Emphasis_MIP                            1
CPXPARAM_DetTimeLimit                            10000
1 of 34 MIP starts provided solutions.
MIP start 'm1' defined initial solution with objective 1505944.0000.
Tried aggregator 1 time.
MIP Presolve eliminated 595 rows and 0 columns.
MIP Presolve added 1190 rows and 0 columns.
MIP Presolve modified 10 coefficients.
Reduced MIP has 2515 rows, 2985 columns, and 7755 nonzeros.
Reduced MIP has 1195 binaries, 0 generals, 0 SOSs, and 0 indicators.
Presolve time = 0.00 sec. (4.53 ticks)
Probing fixed 0 vars, tightened 5487 bounds.
Probing time = 0.01 sec. (18.38 ticks)
Tried aggregator 2 times.
Detecting symmetries...
MIP Presolve modified 1206 coefficients.
Aggregator did 10 substitutions.
Reduced MIP has 2505 rows, 2975 columns, and 7735 nonzeros.
Reduced MIP has 1195 binaries, 0 generals, 0 SOSs, and 0 indicators.
Presolve time = 0.00 sec. (6.66 ticks)
Probing fixed 0 vars, tightened 2401 bounds.
Probing time = 0.00 sec. (6.41 ticks)
Clique table members: 190.
MIP emphasis: integer feasibility.
MIP search method: dynamic search.
Parallel mode: deterministic, using up to 8 threads.
Root relaxation solution time = 0.01 sec. (9.71 ticks)

        Nodes                                         Cuts/
   Node  Left     Objective  IInf  Best Integer    Best Bound    ItCnt     Gap

*     0+    0                      1505944.0000     2080.0000            99.86%
      0     0   348385.3466   472  1505944.0000   348385.3466      882   76.87%
      0     0   513176.8689   527  1505944.0000     Cuts: 726     1867   65.92%
      0     0   741921.3730   628  1505944.0000     Cuts: 726     2683   50.73%
      0     0   887922.6286   744  1505944.0000     Cuts: 726     3425   41.04%
Detecting symmetries...
      0     2   887922.6286   744  1505944.0000   887922.6286     3425   41.04%
Elapsed time = 0.38 sec. (439.57 ticks, tree = 0.02 MB, solutions = 1)
    426   360   951527.6044   571  1505944.0000   889811.5279     7666   40.91%
    986   898  1122949.9340   464  1505944.0000   889811.5279    16865   40.91%
   1692  1507  1435010.7687   302  1505944.0000   889811.5279    23643   40.91%

Performing restart 1

Repeating presolve.
Tried aggregator 1 time.
MIP Presolve modified 1169 coefficients.
Reduced MIP has 2505 rows, 2975 columns, and 7735 nonzeros.
Reduced MIP has 1195 binaries, 0 generals, 0 SOSs, and 0 indicators.
Presolve time = 0.00 sec. (3.81 ticks)
Tried aggregator 1 time.
MIP Presolve modified 850 coefficients.
Reduced MIP has 2505 rows, 2975 columns, and 7735 nonzeros.
Reduced MIP has 1195 binaries, 0 generals, 0 SOSs, and 0 indicators.
Presolve time = 0.00 sec. (5.11 ticks)
Represolve time = 0.01 sec. (16.10 ticks)
   1726     0  1065296.3331   755  1505944.0000     Cuts: 726    29280   29.26%
   1726     0  1161087.7940   769  1505944.0000     Cuts: 726    30068   22.90%
   1726     0  1226770.2325   740  1505944.0000     Cuts: 726    30800   18.54%
   1726     2  1226770.2325   740  1505944.0000  1226770.2325    30800   18.54%
   1749    25  1328395.6868   628  1505944.0000  1226770.7225    31474   18.54%
   1776    52  1349348.1928   561  1505944.0000  1226770.7225    32285   18.54%
   1821    97  1373971.4157   459  1505944.0000  1226770.7225    33276   18.54%
   1840   115  1483010.8315   479  1505944.0000  1226783.3168    35568   18.54%
   1855   128  1497940.7820   456  1505944.0000  1226783.3168    38046   18.54%
   1982   223  1440372.1558   744  1505944.0000  1314292.9641    69870   12.73%
Elapsed time = 3.98 sec. (5301.04 ticks, tree = 0.38 MB, solutions = 1)
   2350   489  1495115.2352   537  1505944.0000  1314292.9641    96846   12.73%
   2569   723  1502937.0508   419  1505944.0000  1314292.9641   126508   12.73%
   2648   784  1490774.0510   651  1505944.0000  1314292.9641   146198   12.73%
   2760   866  1503880.6507   715  1505944.0000  1314292.9641   169128   12.73%

Cover cuts applied:  23
Implied bound cuts applied:  13
Flow cuts applied:  998
Mixed integer rounding cuts applied:  1303
Flow path cuts applied:  55
Multi commodity flow cuts applied:  27
Lift and project cuts applied:  12
Gomory fractional cuts applied:  9

Root node processing (before b&c):
  Real time             =    0.38 sec. (437.16 ticks)
Parallel b&c, 8 threads:
  Real time             =    6.71 sec. (9566.55 ticks)
  Sync time (average)   =    0.48 sec.
  Wait time (average)   =    0.01 sec.
                          ------------
Total (root+branch&cut) =    7.09 sec. (10003.71 ticks)
Gap: 12.73%
Upper bound: 1.50594e+06
Lower bound: 1.31429e+06
End of CPLEX run. Time: 7.08696 seconds

===== New CPLEX run =====
Instance: /home/yorig/tuner/mpils-tests/instances/miplib/easy/lotsize.mps
Config: /scratch/yorig/mpils-results-grid-ticks-10000/easy/16proc/seed-9/4_lotsize_seed-9_20260425_202405/iterated_local_search/run_2_worker_1/ils_config_1434506081354205439.prm
========================

Selected objective sense:  MINIMIZE
Selected objective  name:  R1921
Selected RHS        name:  B
Selected bound      name:  BOUND
Version identifier: 22.1.2.0 | 2024-11-26 | 0edbb82fd
CPXPARAM_Threads                                 8
CPXPARAM_Parallel                                1
CPXPARAM_MIP_Cuts_Cliques                        -1
CPXPARAM_MIP_Cuts_FlowCovers                     2
CPXPARAM_MIP_Cuts_Implied                        2
CPXPARAM_MIP_Cuts_GUBCovers                      -1
CPXPARAM_MIP_Limits_GomoryCand                   10
CPXPARAM_MIP_Cuts_Gomory                         1
CPXPARAM_MIP_Cuts_MIRCut                         2
CPXPARAM_MIP_Cuts_Disjunctive                    -1
CPXPARAM_Emphasis_MIP                            1
CPXPARAM_DetTimeLimit                            10000
1 of 34 MIP starts provided solutions.
MIP start 'm1' defined initial solution with objective 1505944.0000.
Tried aggregator 1 time.
MIP Presolve eliminated 595 rows and 0 columns.
MIP Presolve added 1190 rows and 0 columns.
MIP Presolve modified 10 coefficients.
Reduced MIP has 2515 rows, 2985 columns, and 7755 nonzeros.
Reduced MIP has 1195 binaries, 0 generals, 0 SOSs, and 0 indicators.
Presolve time = 0.00 sec. (4.53 ticks)
Probing fixed 0 vars, tightened 5487 bounds.
Probing time = 0.01 sec. (18.38 ticks)
Tried aggregator 2 times.
Detecting symmetries...
MIP Presolve modified 1206 coefficients.
Aggregator did 10 substitutions.
Reduced MIP has 2505 rows, 2975 columns, and 7735 nonzeros.
Reduced MIP has 1195 binaries, 0 generals, 0 SOSs, and 0 indicators.
Presolve time = 0.00 sec. (6.66 ticks)
Probing fixed 0 vars, tightened 2401 bounds.
Probing time = 0.00 sec. (6.41 ticks)
Clique table members: 190.
MIP emphasis: integer feasibility.
MIP search method: dynamic search.
Parallel mode: deterministic, using up to 8 threads.
Root relaxation solution time = 0.01 sec. (9.71 ticks)

        Nodes                                         Cuts/
   Node  Left     Objective  IInf  Best Integer    Best Bound    ItCnt     Gap

*     0+    0                      1505944.0000     2080.0000            99.86%
      0     0   348385.3466   472  1505944.0000   348385.3466      882   76.87%
      0     0   586044.5480   441  1505944.0000     Cuts: 726     1852   61.08%
      0     0   805656.7024   699  1505944.0000     Cuts: 726     2697   46.50%
      0     0   929343.0587   705  1505944.0000     Cuts: 726     3443   38.29%
Detecting symmetries...
      0     2   929343.0587   705  1505944.0000   929343.0587     3443   38.29%
Elapsed time = 0.40 sec. (447.64 ticks, tree = 0.02 MB, solutions = 1)
    518   492  1000247.0779   573  1505944.0000   929533.2445     9323   38.28%
   1181  1123  1176930.6443   490  1505944.0000   929533.2445    17944   38.28%
   1707  1532  1239684.3761   399  1505944.0000   929533.2445    24548   38.28%

Performing restart 1

Repeating presolve.
Tried aggregator 1 time.
MIP Presolve modified 1158 coefficients.
Reduced MIP has 2505 rows, 2975 columns, and 7735 nonzeros.
Reduced MIP has 1195 binaries, 0 generals, 0 SOSs, and 0 indicators.
Presolve time = 0.00 sec. (3.78 ticks)
Tried aggregator 1 time.
MIP Presolve modified 762 coefficients.
Reduced MIP has 2505 rows, 2975 columns, and 7735 nonzeros.
Reduced MIP has 1195 binaries, 0 generals, 0 SOSs, and 0 indicators.
Presolve time = 0.00 sec. (5.11 ticks)
Represolve time = 0.01 sec. (16.00 ticks)
   1708     0  1075801.6760   730  1505944.0000     Cuts: 726    30167   28.56%
   1708     0  1165223.2182   754  1505944.0000     Cuts: 726    30980   22.63%
   1708     0  1229794.4538   735  1505944.0000     Cuts: 726    31732   18.34%
   1708     2  1229794.4538   735  1505944.0000  1229794.4538    31732   18.34%
   1728    22  1290147.7221   663  1505944.0000  1229837.3306    32385   18.33%
   1769    63  1315596.3840   537  1505944.0000  1229837.3306    33376   18.33%
   1808   100  1417607.9941   434  1505944.0000  1229837.3306    34977   18.33%
   1837     5  1266654.6516   719  1505944.0000  1229905.1633    31923   18.33%
   1845   129  1351943.0968   772  1505944.0000  1229905.1633    40946   18.33%
   1982   194  1329516.9428   770  1505944.0000  1271423.1704    66677   15.57%
Elapsed time = 3.79 sec. (4963.62 ticks, tree = 0.29 MB, solutions = 1)
   2691   703  1412867.8080   499  1505944.0000  1271423.1704    95991   15.57%
   3364  1423  1489631.3205   330  1505944.0000  1271423.1704   143050   15.57%
   4050  1843  1490064.2895   447  1505944.0000  1271423.1704   180933   15.57%
   4743  2531  1434710.3117   477  1505944.0000  1271423.1704   239038   15.57%
   5158  2843  1354012.9685   812  1505944.0000  1271423.1704   260237   15.57%

Cover cuts applied:  19
Implied bound cuts applied:  13
Flow cuts applied:  1039
Mixed integer rounding cuts applied:  1229
Flow path cuts applied:  78
Multi commodity flow cuts applied:  19
Lift and project cuts applied:  3
Gomory fractional cuts applied:  0

Root node processing (before b&c):
  Real time             =    0.40 sec. (445.11 ticks)
Parallel b&c, 8 threads:
  Real time             =    6.74 sec. (9562.71 ticks)
  Sync time (average)   =    0.38 sec.
  Wait time (average)   =    0.00 sec.
                          ------------
Total (root+branch&cut) =    7.14 sec. (10007.81 ticks)
Gap: 15.57%
Upper bound: 1.50594e+06
Lower bound: 1.27142e+06
End of CPLEX run. Time: 7.13889 seconds
